p cnf 298 1062
1 2 3 4 0
-1 -2 0
-1 -3 0
-1 -4 0
-2 -3 0
-2 -4 0
-3 -4 0
5 -6 -7 0
6 -5 -7 0
-5 -6 7 0
6 5 7 0
-1 -7 0
6 -8 -9 0
8 -6 -9 0
9 -6 -8 0
9 6 8 0
-2 9 0
-5 10 0
-8 10 0
5 8 -10 0
6 -10 -11 0
-6 10 -11 0
-6 -10 11 0
6 10 11 0
-3 11 0
5 12 0
8 12 0
-5 -8 -12 0
-6 12 -13 0
6 -12 -13 0
13 -12 -6 0
6 12 13 0
-4 -13 0
8 -14 -15 0
14 -8 -15 0
-8 -14 15 0
8 14 15 0
-1 -15 0
-5 14 -16 0
5 -14 -16 0
16 -14 -5 0
16 14 5 0
-2 16 0
-6 17 0
-8 17 0
6 8 -17 0
14 -17 -18 0
-14 17 -18 0
-14 -17 18 0
14 17 18 0
-3 18 0
8 19 0
6 19 0
-8 -6 -19 0
-14 19 -20 0
14 -19 -20 0
20 -19 -14 0
14 19 20 0
-4 -20 0
21 -22 -23 0
22 -21 -23 0
-21 -22 23 0
22 21 23 0
-1 -23 0
22 -24 -25 0
24 -22 -25 0
25 -22 -24 0
25 22 24 0
-2 25 0
-21 26 0
-24 26 0
-27 26 0
-28 26 0
-29 26 0
-30 26 0
-31 26 0
32 0
22 -26 -33 0
-22 26 -33 0
-22 -26 33 0
22 26 33 0
-3 33 0
21 34 0
24 34 0
27 34 0
28 34 0
29 34 0
30 34 0
31 34 0
-35 0
-22 34 -36 0
22 -34 -36 0
36 -34 -22 0
22 34 36 0
-4 -36 0
24 -37 -38 0
37 -24 -38 0
-24 -37 38 0
24 37 38 0
-1 -38 0
37 -27 -39 0
27 -37 -39 0
39 -37 -27 0
39 37 27 0
-2 39 0
-24 40 0
-27 40 0
-28 40 0
-29 40 0
-30 40 0
-31 40 0
24 27 28 29 30 31 -40 0
37 -40 -41 0
-37 40 -41 0
-37 -40 41 0
37 40 41 0
-3 41 0
24 42 0
27 42 0
28 42 0
29 42 0
30 42 0
31 42 0
-43 0
-37 42 -44 0
37 -42 -44 0
44 -42 -37 0
37 42 44 0
-4 -44 0
27 -45 -46 0
45 -27 -46 0
-27 -45 46 0
27 45 46 0
-1 -46 0
45 -28 -47 0
28 -45 -47 0
47 -45 -28 0
47 45 28 0
-2 47 0
-27 48 0
-28 48 0
-29 48 0
-30 48 0
-31 48 0
27 28 29 30 31 -48 0
45 -48 -49 0
-45 48 -49 0
-45 -48 49 0
45 48 49 0
-3 49 0
27 50 0
28 50 0
29 50 0
30 50 0
31 50 0
-51 0
-45 50 -52 0
45 -50 -52 0
52 -50 -45 0
45 50 52 0
-4 -52 0
28 -53 -54 0
53 -28 -54 0
-28 -53 54 0
28 53 54 0
-1 -54 0
53 -29 -55 0
29 -53 -55 0
55 -53 -29 0
55 53 29 0
-2 55 0
-28 56 0
-29 56 0
-30 56 0
-31 56 0
28 29 30 31 -56 0
53 -56 -57 0
-53 56 -57 0
-53 -56 57 0
53 56 57 0
-3 57 0
28 58 0
29 58 0
30 58 0
31 58 0
-59 0
-53 58 -60 0
53 -58 -60 0
60 -58 -53 0
53 58 60 0
-4 -60 0
29 -61 -62 0
61 -29 -62 0
-29 -61 62 0
29 61 62 0
-1 -62 0
61 -30 -63 0
30 -61 -63 0
63 -61 -30 0
63 61 30 0
-2 63 0
61 -56 -64 0
56 -61 -64 0
-56 -61 64 0
61 56 64 0
-3 64 0
58 -61 -65 0
61 -58 -65 0
65 -58 -61 0
61 58 65 0
-4 -65 0
30 -66 -67 0
66 -30 -67 0
-30 -66 67 0
30 66 67 0
-1 -67 0
66 -31 -68 0
31 -66 -68 0
68 -66 -31 0
68 66 31 0
-2 68 0
66 -56 -69 0
56 -66 -69 0
-56 -66 69 0
66 56 69 0
-3 69 0
58 -66 -70 0
66 -58 -70 0
70 -58 -66 0
66 58 70 0
-4 -70 0
31 -71 -72 0
71 -31 -72 0
-31 -71 72 0
31 71 72 0
-1 -72 0
-28 71 -73 0
28 -71 -73 0
73 -71 -28 0
73 71 28 0
-2 73 0
-31 74 0
-53 74 0
31 53 -74 0
71 -74 -75 0
-71 74 -75 0
-71 -74 75 0
71 74 75 0
-3 75 0
31 76 0
53 76 0
-31 -53 -76 0
-71 76 -77 0
71 -76 -77 0
77 -76 -71 0
71 76 77 0
-4 -77 0
78 -79 -80 0
79 -78 -80 0
-78 -79 80 0
79 78 80 0
-1 -80 0
79 -81 -82 0
81 -79 -82 0
82 -79 -81 0
82 79 81 0
-2 82 0
-78 83 0
-81 83 0
-84 83 0
-85 83 0
-86 83 0
-87 83 0
-88 83 0
89 0
79 -83 -90 0
-79 83 -90 0
-79 -83 90 0
79 83 90 0
-3 90 0
78 91 0
81 91 0
84 91 0
85 91 0
86 91 0
87 91 0
88 91 0
-92 0
-79 91 -93 0
79 -91 -93 0
93 -91 -79 0
79 91 93 0
-4 -93 0
81 -94 -95 0
94 -81 -95 0
-81 -94 95 0
81 94 95 0
-1 -95 0
94 -84 -96 0
84 -94 -96 0
96 -94 -84 0
96 94 84 0
-2 96 0
-81 97 0
-84 97 0
-85 97 0
-86 97 0
-87 97 0
-88 97 0
98 0
94 -97 -99 0
-94 97 -99 0
-94 -97 99 0
94 97 99 0
-3 99 0
81 100 0
84 100 0
85 100 0
86 100 0
87 100 0
88 100 0
-101 0
-94 100 -102 0
94 -100 -102 0
102 -100 -94 0
94 100 102 0
-4 -102 0
84 -103 -104 0
103 -84 -104 0
-84 -103 104 0
84 103 104 0
-1 -104 0
103 -85 -105 0
85 -103 -105 0
105 -103 -85 0
105 103 85 0
-2 105 0
-84 106 0
-85 106 0
-86 106 0
-87 106 0
-88 106 0
84 85 86 87 88 -106 0
103 -106 -107 0
-103 106 -107 0
-103 -106 107 0
103 106 107 0
-3 107 0
84 108 0
85 108 0
86 108 0
87 108 0
88 108 0
-109 0
-103 108 -110 0
103 -108 -110 0
110 -108 -103 0
103 108 110 0
-4 -110 0
85 -111 -112 0
111 -85 -112 0
-85 -111 112 0
85 111 112 0
-1 -112 0
111 -86 -113 0
86 -111 -113 0
113 -111 -86 0
113 111 86 0
-2 113 0
-85 114 0
-86 114 0
-87 114 0
-88 114 0
85 86 87 88 -114 0
111 -114 -115 0
-111 114 -115 0
-111 -114 115 0
111 114 115 0
-3 115 0
85 116 0
86 116 0
87 116 0
88 116 0
-117 0
-111 116 -118 0
111 -116 -118 0
118 -116 -111 0
111 116 118 0
-4 -118 0
86 -119 -120 0
119 -86 -120 0
-86 -119 120 0
86 119 120 0
-1 -120 0
119 -87 -121 0
87 -119 -121 0
121 -119 -87 0
121 119 87 0
-2 121 0
119 -114 -122 0
114 -119 -122 0
-114 -119 122 0
119 114 122 0
-3 122 0
116 -119 -123 0
119 -116 -123 0
123 -116 -119 0
119 116 123 0
-4 -123 0
87 -124 -125 0
124 -87 -125 0
-87 -124 125 0
87 124 125 0
-1 -125 0
124 -88 -126 0
88 -124 -126 0
126 -124 -88 0
126 124 88 0
-2 126 0
124 -114 -127 0
114 -124 -127 0
-114 -124 127 0
124 114 127 0
-3 127 0
116 -124 -128 0
124 -116 -128 0
128 -116 -124 0
124 116 128 0
-4 -128 0
88 -129 -130 0
129 -88 -130 0
-88 -129 130 0
88 129 130 0
-1 -130 0
-85 129 -131 0
85 -129 -131 0
131 -129 -85 0
131 129 85 0
-2 131 0
-88 132 0
-111 132 0
88 111 -132 0
129 -132 -133 0
-129 132 -133 0
-129 -132 133 0
129 132 133 0
-3 133 0
88 134 0
111 134 0
-88 -111 -134 0
-129 134 -135 0
129 -134 -135 0
135 -134 -129 0
129 134 135 0
-4 -135 0
136 -137 -138 0
137 -136 -138 0
-136 -137 138 0
137 136 138 0
-1 -138 0
137 -139 -140 0
139 -137 -140 0
140 -137 -139 0
140 137 139 0
-2 140 0
-136 141 0
-139 141 0
-142 141 0
136 139 142 -141 0
137 -141 -143 0
-137 141 -143 0
-137 -141 143 0
137 141 143 0
-3 143 0
136 144 0
139 144 0
142 144 0
-136 -139 -142 -144 0
-137 144 -145 0
137 -144 -145 0
145 -144 -137 0
137 144 145 0
-4 -145 0
139 -146 -147 0
146 -139 -147 0
-139 -146 147 0
139 146 147 0
-1 -147 0
146 -142 -148 0
142 -146 -148 0
148 -146 -142 0
148 146 142 0
-2 148 0
-139 149 0
-142 149 0
139 142 -149 0
146 -149 -150 0
-146 149 -150 0
-146 -149 150 0
146 149 150 0
-3 150 0
139 151 0
142 151 0
-139 -142 -151 0
-146 151 -152 0
146 -151 -152 0
152 -151 -146 0
146 151 152 0
-4 -152 0
142 -153 -154 0
153 -142 -154 0
-142 -153 154 0
142 153 154 0
-1 -154 0
153 -142 -155 0
142 -153 -155 0
155 -153 -142 0
155 153 142 0
-2 155 0
-142 156 0
-153 156 0
142 153 -156 0
153 -156 -157 0
-153 156 -157 0
-153 -156 157 0
153 156 157 0
-3 157 0
142 158 0
153 158 0
-142 -153 -158 0
-153 158 -159 0
153 -158 -159 0
159 -158 -153 0
153 158 159 0
-4 -159 0
160 -161 -162 0
161 -160 -162 0
-160 -161 162 0
161 160 162 0
-1 -162 0
161 -163 -164 0
163 -161 -164 0
164 -161 -163 0
164 161 163 0
-2 164 0
-160 165 0
-163 165 0
-166 165 0
-167 165 0
-168 165 0
160 163 166 167 168 -165 0
161 -165 -169 0
-161 165 -169 0
-161 -165 169 0
161 165 169 0
-3 169 0
160 170 0
163 170 0
166 170 0
167 170 0
168 170 0
-171 0
-161 170 -172 0
161 -170 -172 0
172 -170 -161 0
161 170 172 0
-4 -172 0
163 -173 -174 0
173 -163 -174 0
-163 -173 174 0
163 173 174 0
-1 -174 0
173 -166 -175 0
166 -173 -175 0
175 -173 -166 0
175 173 166 0
-2 175 0
-163 176 0
-166 176 0
-167 176 0
-168 176 0
163 166 167 168 -176 0
173 -176 -177 0
-173 176 -177 0
-173 -176 177 0
173 176 177 0
-3 177 0
163 178 0
166 178 0
167 178 0
168 178 0
-179 0
-173 178 -180 0
173 -178 -180 0
180 -178 -173 0
173 178 180 0
-4 -180 0
166 -181 -182 0
181 -166 -182 0
-166 -181 182 0
166 181 182 0
-1 -182 0
181 -167 -183 0
167 -181 -183 0
183 -181 -167 0
183 181 167 0
-2 183 0
-166 184 0
-167 184 0
-168 184 0
166 167 168 -184 0
181 -184 -185 0
-181 184 -185 0
-181 -184 185 0
181 184 185 0
-3 185 0
166 186 0
167 186 0
168 186 0
-166 -167 -168 -186 0
-181 186 -187 0
181 -186 -187 0
187 -186 -181 0
181 186 187 0
-4 -187 0
167 -188 -189 0
188 -167 -189 0
-167 -188 189 0
167 188 189 0
-1 -189 0
188 -168 -190 0
168 -188 -190 0
190 -188 -168 0
190 188 168 0
-2 190 0
188 -184 -191 0
184 -188 -191 0
-184 -188 191 0
188 184 191 0
-3 191 0
186 -188 -192 0
188 -186 -192 0
192 -186 -188 0
188 186 192 0
-4 -192 0
168 -193 -194 0
193 -168 -194 0
-168 -193 194 0
168 193 194 0
-1 -194 0
-166 193 -195 0
166 -193 -195 0
195 -193 -166 0
195 193 166 0
-2 195 0
-168 196 0
-181 196 0
168 181 -196 0
193 -196 -197 0
-193 196 -197 0
-193 -196 197 0
193 196 197 0
-3 197 0
168 198 0
181 198 0
-168 -181 -198 0
-193 198 -199 0
193 -198 -199 0
199 -198 -193 0
193 198 199 0
-4 -199 0
200 -201 -202 0
201 -200 -202 0
-200 -201 202 0
201 200 202 0
-1 -202 0
201 -203 -204 0
203 -201 -204 0
204 -201 -203 0
204 201 203 0
-2 204 0
-5 205 0
-8 205 0
-200 205 0
-203 205 0
-206 205 0
-207 205 0
5 8 200 203 206 207 -205 0
201 -205 -208 0
-201 205 -208 0
-201 -205 208 0
201 205 208 0
-3 208 0
5 209 0
8 209 0
200 209 0
203 209 0
206 209 0
207 209 0
-210 0
-201 209 -211 0
201 -209 -211 0
211 -209 -201 0
201 209 211 0
-4 -211 0
203 -212 -213 0
212 -203 -213 0
-203 -212 213 0
203 212 213 0
-1 -213 0
212 -206 -214 0
206 -212 -214 0
214 -212 -206 0
214 212 206 0
-2 214 0
-5 215 0
-8 215 0
-203 215 0
-206 215 0
-207 215 0
5 8 203 206 207 -215 0
212 -215 -216 0
-212 215 -216 0
-212 -215 216 0
212 215 216 0
-3 216 0
5 217 0
8 217 0
203 217 0
206 217 0
207 217 0
-218 0
-212 217 -219 0
212 -217 -219 0
219 -217 -212 0
212 217 219 0
-4 -219 0
206 -220 -221 0
220 -206 -221 0
-206 -220 221 0
206 220 221 0
-1 -221 0
220 -207 -222 0
207 -220 -222 0
222 -220 -207 0
222 220 207 0
-2 222 0
-5 223 0
-8 223 0
-206 223 0
-207 223 0
5 8 206 207 -223 0
220 -223 -224 0
-220 223 -224 0
-220 -223 224 0
220 223 224 0
-3 224 0
5 225 0
8 225 0
206 225 0
207 225 0
-226 0
-220 225 -227 0
220 -225 -227 0
227 -225 -220 0
220 225 227 0
-4 -227 0
207 -228 -229 0
228 -207 -229 0
-207 -228 229 0
207 228 229 0
-1 -229 0
-5 228 -230 0
5 -228 -230 0
230 -228 -5 0
230 228 5 0
-2 230 0
-5 231 0
-8 231 0
-207 231 0
5 8 207 -231 0
228 -231 -232 0
-228 231 -232 0
-228 -231 232 0
228 231 232 0
-3 232 0
5 233 0
8 233 0
207 233 0
-5 -8 -207 -233 0
-228 233 -234 0
228 -233 -234 0
234 -233 -228 0
228 233 234 0
-4 -234 0
235 -236 -237 0
236 -235 -237 0
-235 -236 237 0
236 235 237 0
-1 -237 0
236 -238 -239 0
238 -236 -239 0
239 -236 -238 0
239 236 238 0
-2 239 0
-166 240 0
-167 240 0
-168 240 0
-235 240 0
-238 240 0
-241 240 0
-242 240 0
243 0
236 -240 -244 0
-236 240 -244 0
-236 -240 244 0
236 240 244 0
-3 244 0
166 245 0
167 245 0
168 245 0
235 245 0
238 245 0
241 245 0
242 245 0
-246 0
-236 245 -247 0
236 -245 -247 0
247 -245 -236 0
236 245 247 0
-4 -247 0
238 -248 -249 0
248 -238 -249 0
-238 -248 249 0
238 248 249 0
-1 -249 0
248 -241 -250 0
241 -248 -250 0
250 -248 -241 0
250 248 241 0
-2 250 0
-166 251 0
-167 251 0
-168 251 0
-238 251 0
-241 251 0
-242 251 0
252 0
248 -251 -253 0
-248 251 -253 0
-248 -251 253 0
248 251 253 0
-3 253 0
166 254 0
167 254 0
168 254 0
238 254 0
241 254 0
242 254 0
-255 0
-248 254 -256 0
248 -254 -256 0
256 -254 -248 0
248 254 256 0
-4 -256 0
241 -257 -258 0
257 -241 -258 0
-241 -257 258 0
241 257 258 0
-1 -258 0
257 -242 -259 0
242 -257 -259 0
259 -257 -242 0
259 257 242 0
-2 259 0
-166 260 0
-167 260 0
-168 260 0
-241 260 0
-242 260 0
166 167 168 241 242 -260 0
257 -260 -261 0
-257 260 -261 0
-257 -260 261 0
257 260 261 0
-3 261 0
166 262 0
167 262 0
168 262 0
241 262 0
242 262 0
-263 0
-257 262 -264 0
257 -262 -264 0
264 -262 -257 0
257 262 264 0
-4 -264 0
242 -265 -266 0
265 -242 -266 0
-242 -265 266 0
242 265 266 0
-1 -266 0
-168 265 -267 0
168 -265 -267 0
267 -265 -168 0
267 265 168 0
-2 267 0
-166 268 0
-167 268 0
-168 268 0
-242 268 0
166 167 168 242 -268 0
265 -268 -269 0
-265 268 -269 0
-265 -268 269 0
265 268 269 0
-3 269 0
166 270 0
167 270 0
168 270 0
242 270 0
-271 0
-265 270 -272 0
265 -270 -272 0
272 -270 -265 0
265 270 272 0
-4 -272 0
273 -274 -275 0
274 -273 -275 0
-273 -274 275 0
274 273 275 0
-1 -275 0
274 -276 -277 0
276 -274 -277 0
277 -274 -276 0
277 274 276 0
-2 277 0
-5 278 0
-8 278 0
-273 278 0
-276 278 0
-279 278 0
5 8 273 276 279 -278 0
274 -278 -280 0
-274 278 -280 0
-274 -278 280 0
274 278 280 0
-3 280 0
5 281 0
8 281 0
273 281 0
276 281 0
279 281 0
-282 0
-274 281 -283 0
274 -281 -283 0
283 -281 -274 0
274 281 283 0
-4 -283 0
276 -284 -285 0
284 -276 -285 0
-276 -284 285 0
276 284 285 0
-1 -285 0
284 -279 -286 0
279 -284 -286 0
286 -284 -279 0
286 284 279 0
-2 286 0
-5 287 0
-8 287 0
-276 287 0
-279 287 0
5 8 276 279 -287 0
284 -287 -288 0
-284 287 -288 0
-284 -287 288 0
284 287 288 0
-3 288 0
5 289 0
8 289 0
276 289 0
279 289 0
-290 0
-284 289 -291 0
284 -289 -291 0
291 -289 -284 0
284 289 291 0
-4 -291 0
279 -292 -293 0
292 -279 -293 0
-279 -292 293 0
279 292 293 0
-1 -293 0
-8 292 -294 0
8 -292 -294 0
294 -292 -8 0
294 292 8 0
-2 294 0
-5 295 0
-8 295 0
-279 295 0
5 8 279 -295 0
292 -295 -296 0
-292 295 -296 0
-292 -295 296 0
292 295 296 0
-3 296 0
5 297 0
8 297 0
279 297 0
-5 -8 -279 -297 0
-292 297 -298 0
292 -297 -298 0
298 -297 -292 0
292 297 298 0
-4 -298 0
5 0
-8 0
-21 0
-24 0
27 0
-28 0
29 0
-30 0
-31 0
78 0
81 0
-84 0
85 0
86 0
-87 0
88 0
136 0
139 0
-142 0
160 0
-163 0
-166 0
-167 0
168 0
-200 0
-203 0
-206 0
207 0
-235 0
-238 0
-241 0
242 0
273 0
-276 0
-279 0
6 0
22 0
79 0
103 0
137 0
-153 0
161 0
201 0
236 0
274 0
